$molecule
0 1
  C    0.3573608   -0.1234522   -0.0000001
  H    1.4667617   -0.1234504   -0.0000012
  H   -0.0124373   -0.8029321    0.7951896
  H   -0.0124400   -0.4723673   -0.9860405
  H   -0.0124410    0.9049408    0.1908519
$end

$rem
   BASIS  =  6-31G*
   GUI  =  2
   JOB_TYPE  =  Optimization
   METHOD  =  wB97X-V
   SCF_CONVERGENCE  =  7
$end


